
%FILE DATA:	Soccer Computational Problem for MiniZinc Models	%
%AUTHOR:	Jack Wall	%
%CONTACT:  	116397063@umail.ucc.ie			%
%LAST UPDATE:	03/19/2020, 18:19:11						%
%DESCRIPTION: 	208 games played with 32 games left				%


n=16; %number of teams

%Games to play
games=[|1,12|12,5|9,7|3,13|1,3|14,5|6,10|5,13|5,12|8,13|13,2|14,15|11,3|1,6|11,8|14,8|3,2|15,12|10,7|5,4|4,2|14,11|2,7|8,1|12,3|6,5|2,12|2,15|6,14|3,15|12,6|15,10|];

%Initial points
iPoints=[31,25,39,36,36,42,32,31,40,30,40,29,38,24,41,33];

%POSITION CONSTRAINTS
% [|teamID, operator, position|...]
% operators index:
%  1 for =  operator
%  2 for >  operator
%  3 for >= operator
%  4 for <  operator
%  5 for <= operator
positionConstraints=[|6,3,1|13,3,2|3,3,3|];